HUN,8,6,490
1,28,5,28,0,28,2,24,4,25,3,24
1,26,3,25,5,24,4,28,2,25,0,26
0,27,3,21,5,25,4,26,1,24,2,26
2,23,0,30,1,30,3,29,4,27,5,27
3,25,4,22,1,24,2,26,0,24,5,25
0,28,2,30,4,28,1,21,3,29,5,30
2,22,0,30,1,27,4,22,3,22,5,23
5,28,3,30,2,29,0,29,4,27,1,25
